
# Auto Generated File built from CSVs
#  - Objective File: /home/velcro/Documents/Professional/NJDEP/TechWork/ForMOM/src/optimization/convert_to_dat/MiniModelRunning/ObjectiveFile_062822_diff505ASV.csv
#  - Constraints File: /home/velcro/Documents/Professional/NJDEP/TechWork/ForMOM/src/optimization/convert_to_dat/MiniModelRunning/minimodel_cosntrs_20220701_11_No608Acerage.csv
#
# NJDEP
	
set index_vars := 167N_2021_THNB 167N_2021_THNP 167N_2025_THNB 167N_2025_THNP 167N_2030_THNB 167N_2030_THNP 167N_2050_THNB 167N_2050_THNP 167S_2021_THNB 167S_2021_THNP 167S_2025_THNB 167S_2025_THNP 167S_2030_THNB 167S_2030_THNP 167S_2050_THNB 167S_2050_THNP 505_2021_ASV 505_2021_IFM 505_2021_THNB 505_2021_THNP 505_2025_ASV 505_2025_IFM 505_2025_THNB 505_2025_THNP 505_2030_ASV 505_2030_IFM 505_2030_THNB 505_2030_THNP 505_2050_ASV 505_2050_IFM 505_2050_THNB 505_2050_THNP 608_2021_AWR 608_2025_AWR 608_2030_AWR 608_2050_AWR 999_2021_AWR 999_2021_CAR 999_2021_NAR 999_2021_SAR 999_2025_AWR 999_2025_CAR 999_2025_NAR 999_2025_SAR 999_2030_AWR 999_2030_CAR 999_2030_NAR 999_2030_SAR 999_2050_AWR 999_2050_CAR 999_2050_NAR 999_2050_SAR dummy0 dummy1;

set index_le_consts := TotalAcreage YearlyAcreage_2021 YearlyAcreage_2025 YearlyAcreage_2030 YearlyAcreage_2050 AWRTotalAc_2021 AWRTotalAc_2025 AWRTotalAc_2030 AWRTotalAc_2050 AWRConvert2021Ac AWRConvert2025Ac AWRConvert2030Ac AWRConvert2050Ac ThinSetup ARstart_2021;

set index_ge_consts := dummyGE0;

set index_eq_consts := 167NAcreage_2021 167NAcreage_2025 167NAcreage_2030 167NAcreage_2050 167SAcreage_2021 167SAcreage_2025 167SAcreage_2030 167SAcreage_2050 505Acreage_2021 505Acreage_2025 505Acreage_2030 505Acreage_2050 999Acreage_2021 999Acreage_2025 999Acreage_2030 999Acreage_2050 ThinCont2025_167N ThinCont2025_167S ThinCont2025_505 ThinCont2030_167N ThinCont2030_167S ThinCont2030_505 ThinCont2050_167N ThinCont2050_167S ThinCont2050_505 ZeroingTHNP_167N_2021_THNP ZeroingTHNP_167N_2025_THNP ZeroingTHNP_167N_2030_THNP ZeroingTHNP_167N_2050_THNP ZeroingTHNP_167S_2021_THNP ZeroingTHNP_167S_2025_THNP ZeroingTHNP_167S_2030_THNP ZeroingTHNP_167S_2050_THNP ZeroingTHNP_505_2021_THNP ZeroingTHNP_505_2025_THNP ZeroingTHNP_505_2030_THNP ZeroingTHNP_505_2050_THNP ARCont2025_CAR ARCont2025_NAR ARCont2025_SAR ARcont2030_CAR ARcont2030_NAR ARcont2030_SAR ARcont2050_CAR ARcont2050_NAR ARcont2050_SAR;

param vec_objective := 
	167N_2021_THNB 34.4373016357421
	167N_2021_THNP 32.2928771972656
	167N_2025_THNB 35.4822769165039
	167N_2025_THNP 31.2475566864013
	167N_2030_THNB 36.572166442871
	167N_2030_THNP 31.3943672180175
	167N_2050_THNB 57.7596359252929
	167N_2050_THNP 51.6219635009765
	167S_2021_THNB 36.4387779235839
	167S_2021_THNP 34.9812507629394
	167S_2025_THNB 37.1355934143066
	167S_2025_THNP 34.2491264343261
	167S_2030_THNB 38.2803230285644
	167S_2030_THNP 34.5228767395019
	167S_2050_THNB 62.4855117797851
	167S_2050_THNP 55.9751739501953
	505_2021_ASV 55.2021255493164
	505_2021_IFM 52.616355895996
	505_2021_THNB 53.6938209533691
	505_2021_THNP 49.5024185180664
	505_2025_ASV 55.2021255493164
	505_2025_IFM 54.11275100708
	505_2025_THNB 55.1071472167968
	505_2025_THNP 49.0158538818359
	505_2030_ASV 55.2021255493164
	505_2030_IFM 57.4300193786621
	505_2030_THNB 58.0108642578125
	505_2030_THNP 50.4638519287109
	505_2050_ASV 55.2021255493164
	505_2050_IFM 78.3806076049804
	505_2050_THNB 85.7316131591796
	505_2050_THNP 78.0643310546875
	608_2021_AWR 27.2774925231933
	608_2025_AWR 21.5948886871337
	608_2030_AWR 21.1313648223877
	608_2050_AWR 46.7029762268066
	999_2021_AWR 4.82215595245361
	999_2021_CAR 4.82215595245361
	999_2021_NAR 4.82486200332642
	999_2021_SAR 4.82215595245361
	999_2025_AWR 4.35904598236084
	999_2025_CAR 4.11526250839233
	999_2025_NAR 3.92398738861084
	999_2025_SAR 4.18675756454468
	999_2030_AWR 6.59027862548828
	999_2030_CAR 4.93814754486084
	999_2030_NAR 4.10875606536865
	999_2030_SAR 5.29899883270264
	999_2050_AWR 30.1517944335937
	999_2050_CAR 23.6133480072021
	999_2050_NAR 19.5559272766113
	999_2050_SAR 26.0150489807128
	dummy0 -1
	dummy1 -1
;

param vec_le := 
	TotalAcreage 2467184.0
	YearlyAcreage_2021 616795.0
	YearlyAcreage_2025 616795.0
	YearlyAcreage_2030 616795.0
	YearlyAcreage_2050 616795.0
	AWRTotalAc_2021 143009.0
	AWRTotalAc_2025 143009.0
	AWRTotalAc_2030 143009.0
	AWRTotalAc_2050 143009.0
	AWRConvert2021Ac 1000.0
	AWRConvert2025Ac 4000.0
	AWRConvert2030Ac 5000.0
	AWRConvert2050Ac 20000.0
	ThinSetup 473786.0
	ARstart_2021 24845.0
;

param mat_le: 167N_2021_THNB 167N_2021_THNP 167N_2025_THNB 167N_2025_THNP 167N_2030_THNB 167N_2030_THNP 167N_2050_THNB 167N_2050_THNP 167S_2021_THNB 167S_2021_THNP 167S_2025_THNB 167S_2025_THNP 167S_2030_THNB 167S_2030_THNP 167S_2050_THNB 167S_2050_THNP 505_2021_ASV 505_2021_IFM 505_2021_THNB 505_2021_THNP 505_2025_ASV 505_2025_IFM 505_2025_THNB 505_2025_THNP 505_2030_ASV 505_2030_IFM 505_2030_THNB 505_2030_THNP 505_2050_ASV 505_2050_IFM 505_2050_THNB 505_2050_THNP 608_2021_AWR 608_2025_AWR 608_2030_AWR 608_2050_AWR 999_2021_AWR 999_2021_CAR 999_2021_NAR 999_2021_SAR 999_2025_AWR 999_2025_CAR 999_2025_NAR 999_2025_SAR 999_2030_AWR 999_2030_CAR 999_2030_NAR 999_2030_SAR 999_2050_AWR 999_2050_CAR 999_2050_NAR 999_2050_SAR dummy0 dummy1 :=
	TotalAcreage 1.0 0.0 1.0 0.0 1.0 0.0 1.0 0.0 1.0 0.0 1.0 0.0 1.0 0.0 1.0 0.0 1.0 1.0 1.0 0.0 1.0 1.0 1.0 0.0 1.0 1.0 1.0 0.0 1.0 1.0 1.0 0.0 1.0 1.0 1.0 1.0 1.0 1.0 1.0 1.0 1.0 1.0 1.0 1.0 1.0 1.0 1.0 1.0 1.0 1.0 1.0 1.0 0 0 
	YearlyAcreage_2021 1.0 0.0 0.0 0.0 0.0 0.0 0.0 0.0 1.0 0.0 0.0 0.0 0.0 0.0 0.0 0.0 1.0 1.0 1.0 0.0 0.0 0.0 0.0 0.0 0.0 0.0 0.0 0.0 0.0 0.0 0.0 0.0 1.0 0.0 0.0 0.0 1.0 1.0 1.0 1.0 0.0 0.0 0.0 0.0 0.0 0.0 0.0 0.0 0.0 0.0 0.0 0.0 0 0 
	YearlyAcreage_2025 0.0 0.0 1.0 0.0 0.0 0.0 0.0 0.0 0.0 0.0 1.0 0.0 0.0 0.0 0.0 0.0 0.0 0.0 0.0 0.0 1.0 1.0 1.0 0.0 0.0 0.0 0.0 0.0 0.0 0.0 0.0 0.0 0.0 1.0 0.0 0.0 0.0 0.0 0.0 0.0 1.0 1.0 1.0 1.0 0.0 0.0 0.0 0.0 0.0 0.0 0.0 0.0 0 0 
	YearlyAcreage_2030 0.0 0.0 0.0 0.0 1.0 0.0 0.0 0.0 0.0 0.0 0.0 0.0 1.0 0.0 0.0 0.0 0.0 0.0 0.0 0.0 0.0 0.0 0.0 0.0 1.0 1.0 1.0 0.0 0.0 0.0 0.0 0.0 0.0 0.0 1.0 0.0 0.0 0.0 0.0 0.0 0.0 0.0 0.0 0.0 1.0 1.0 1.0 1.0 0.0 0.0 0.0 0.0 0 0 
	YearlyAcreage_2050 0.0 0.0 0.0 0.0 0.0 0.0 1.0 0.0 0.0 0.0 0.0 0.0 0.0 0.0 1.0 0.0 0.0 0.0 0.0 0.0 0.0 0.0 0.0 0.0 0.0 0.0 0.0 0.0 1.0 1.0 1.0 0.0 0.0 0.0 0.0 1.0 0.0 0.0 0.0 0.0 0.0 0.0 0.0 0.0 0.0 0.0 0.0 0.0 1.0 1.0 1.0 1.0 0 0 
	AWRTotalAc_2021 0.0 0.0 0.0 0.0 0.0 0.0 0.0 0.0 0.0 0.0 0.0 0.0 0.0 0.0 0.0 0.0 0.0 0.0 0.0 0.0 0.0 0.0 0.0 0.0 0.0 0.0 0.0 0.0 0.0 0.0 0.0 0.0 1.0 0.0 0.0 0.0 1.0 0.0 0.0 0.0 0.0 0.0 0.0 0.0 0.0 0.0 0.0 0.0 0.0 0.0 0.0 0.0 0 0 
	AWRTotalAc_2025 0.0 0.0 0.0 0.0 0.0 0.0 0.0 0.0 0.0 0.0 0.0 0.0 0.0 0.0 0.0 0.0 0.0 0.0 0.0 0.0 0.0 0.0 0.0 0.0 0.0 0.0 0.0 0.0 0.0 0.0 0.0 0.0 0.0 1.0 0.0 0.0 0.0 0.0 0.0 0.0 1.0 0.0 0.0 0.0 0.0 0.0 0.0 0.0 0.0 0.0 0.0 0.0 0 0 
	AWRTotalAc_2030 0.0 0.0 0.0 0.0 0.0 0.0 0.0 0.0 0.0 0.0 0.0 0.0 0.0 0.0 0.0 0.0 0.0 0.0 0.0 0.0 0.0 0.0 0.0 0.0 0.0 0.0 0.0 0.0 0.0 0.0 0.0 0.0 0.0 0.0 1.0 0.0 0.0 0.0 0.0 0.0 0.0 0.0 0.0 0.0 1.0 0.0 0.0 0.0 0.0 0.0 0.0 0.0 0 0 
	AWRTotalAc_2050 0.0 0.0 0.0 0.0 0.0 0.0 0.0 0.0 0.0 0.0 0.0 0.0 0.0 0.0 0.0 0.0 0.0 0.0 0.0 0.0 0.0 0.0 0.0 0.0 0.0 0.0 0.0 0.0 0.0 0.0 0.0 0.0 0.0 0.0 0.0 1.0 0.0 0.0 0.0 0.0 0.0 0.0 0.0 0.0 0.0 0.0 0.0 0.0 1.0 0.0 0.0 0.0 0 0 
	AWRConvert2021Ac 0.0 0.0 0.0 0.0 0.0 0.0 0.0 0.0 0.0 0.0 0.0 0.0 0.0 0.0 0.0 0.0 0.0 0.0 0.0 0.0 0.0 0.0 0.0 0.0 0.0 0.0 0.0 0.0 0.0 0.0 0.0 0.0 1.0 0.0 0.0 0.0 1.0 0.0 0.0 0.0 0.0 0.0 0.0 0.0 0.0 0.0 0.0 0.0 0.0 0.0 0.0 0.0 0 0 
	AWRConvert2025Ac 0.0 0.0 0.0 0.0 0.0 0.0 0.0 0.0 0.0 0.0 0.0 0.0 0.0 0.0 0.0 0.0 0.0 0.0 0.0 0.0 0.0 0.0 0.0 0.0 0.0 0.0 0.0 0.0 0.0 0.0 0.0 0.0 0.0 1.0 0.0 0.0 0.0 0.0 0.0 0.0 1.0 0.0 0.0 0.0 0.0 0.0 0.0 0.0 0.0 0.0 0.0 0.0 0 0 
	AWRConvert2030Ac 0.0 0.0 0.0 0.0 0.0 0.0 0.0 0.0 0.0 0.0 0.0 0.0 0.0 0.0 0.0 0.0 0.0 0.0 0.0 0.0 0.0 0.0 0.0 0.0 0.0 0.0 0.0 0.0 0.0 0.0 0.0 0.0 0.0 0.0 1.0 0.0 0.0 0.0 0.0 0.0 0.0 0.0 0.0 0.0 1.0 0.0 0.0 0.0 0.0 0.0 0.0 0.0 0 0 
	AWRConvert2050Ac 0.0 0.0 0.0 0.0 0.0 0.0 0.0 0.0 0.0 0.0 0.0 0.0 0.0 0.0 0.0 0.0 0.0 0.0 0.0 0.0 0.0 0.0 0.0 0.0 0.0 0.0 0.0 0.0 0.0 0.0 0.0 0.0 0.0 0.0 0.0 1.0 0.0 0.0 0.0 0.0 0.0 0.0 0.0 0.0 0.0 0.0 0.0 0.0 1.0 0.0 0.0 0.0 0 0 
	ThinSetup 1.0 0.0 0.0 0.0 0.0 0.0 0.0 0.0 1.0 0.0 0.0 0.0 0.0 0.0 0.0 0.0 0.0 0.0 1.0 0.0 0.0 0.0 0.0 0.0 0.0 0.0 0.0 0.0 0.0 0.0 0.0 0.0 0.0 0.0 0.0 0.0 0.0 0.0 0.0 0.0 0.0 0.0 0.0 0.0 0.0 0.0 0.0 0.0 0.0 0.0 0.0 0.0 0 0 
	ARstart_2021 0.0 0.0 0.0 0.0 0.0 0.0 0.0 0.0 0.0 0.0 0.0 0.0 0.0 0.0 0.0 0.0 0.0 0.0 0.0 0.0 0.0 0.0 0.0 0.0 0.0 0.0 0.0 0.0 0.0 0.0 0.0 0.0 0.0 0.0 0.0 0.0 0.0 1.0 1.0 1.0 0.0 0.0 0.0 0.0 0.0 0.0 0.0 0.0 0.0 0.0 0.0 0.0 0 0 
;

param vec_ge := 
	dummyGE0 0
;

param mat_ge: 167N_2021_THNB 167N_2021_THNP 167N_2025_THNB 167N_2025_THNP 167N_2030_THNB 167N_2030_THNP 167N_2050_THNB 167N_2050_THNP 167S_2021_THNB 167S_2021_THNP 167S_2025_THNB 167S_2025_THNP 167S_2030_THNB 167S_2030_THNP 167S_2050_THNB 167S_2050_THNP 505_2021_ASV 505_2021_IFM 505_2021_THNB 505_2021_THNP 505_2025_ASV 505_2025_IFM 505_2025_THNB 505_2025_THNP 505_2030_ASV 505_2030_IFM 505_2030_THNB 505_2030_THNP 505_2050_ASV 505_2050_IFM 505_2050_THNB 505_2050_THNP 608_2021_AWR 608_2025_AWR 608_2030_AWR 608_2050_AWR 999_2021_AWR 999_2021_CAR 999_2021_NAR 999_2021_SAR 999_2025_AWR 999_2025_CAR 999_2025_NAR 999_2025_SAR 999_2030_AWR 999_2030_CAR 999_2030_NAR 999_2030_SAR 999_2050_AWR 999_2050_CAR 999_2050_NAR 999_2050_SAR dummy0 dummy1 :=
	dummyGE0 0 0 0 0 0 0 0 0 0 0 0 0 0 0 0 0 0 0 0 0 0 0 0 0 0 0 0 0 0 0 0 0 0 0 0 0 0 0 0 0 0 0 0 0 0 0 0 0 0 0 0 0 1 1 
;

param vec_eq := 
	167NAcreage_2021 221277.0
	167NAcreage_2025 221277.0
	167NAcreage_2030 221277.0
	167NAcreage_2050 221277.0
	167SAcreage_2021 197602.0
	167SAcreage_2025 197602.0
	167SAcreage_2030 197602.0
	167SAcreage_2050 197602.0
	505Acreage_2021 54907.0
	505Acreage_2025 54907.0
	505Acreage_2030 54907.0
	505Acreage_2050 54907.0
	999Acreage_2021 24845.0
	999Acreage_2025 24845.0
	999Acreage_2030 24845.0
	999Acreage_2050 24845.0
	ThinCont2025_167N 0.0
	ThinCont2025_167S 0.0
	ThinCont2025_505 0.0
	ThinCont2030_167N 0.0
	ThinCont2030_167S 0.0
	ThinCont2030_505 0.0
	ThinCont2050_167N 0.0
	ThinCont2050_167S 0.0
	ThinCont2050_505 0.0
	ZeroingTHNP_167N_2021_THNP 0.0
	ZeroingTHNP_167N_2025_THNP 0.0
	ZeroingTHNP_167N_2030_THNP 0.0
	ZeroingTHNP_167N_2050_THNP 0.0
	ZeroingTHNP_167S_2021_THNP 0.0
	ZeroingTHNP_167S_2025_THNP 0.0
	ZeroingTHNP_167S_2030_THNP 0.0
	ZeroingTHNP_167S_2050_THNP 0.0
	ZeroingTHNP_505_2021_THNP 0.0
	ZeroingTHNP_505_2025_THNP 0.0
	ZeroingTHNP_505_2030_THNP 0.0
	ZeroingTHNP_505_2050_THNP 0.0
	ARCont2025_CAR 0.0
	ARCont2025_NAR 0.0
	ARCont2025_SAR 0.0
	ARcont2030_CAR 0.0
	ARcont2030_NAR 0.0
	ARcont2030_SAR 0.0
	ARcont2050_CAR 0.0
	ARcont2050_NAR 0.0
	ARcont2050_SAR 0.0
;

param mat_eq: 167N_2021_THNB 167N_2021_THNP 167N_2025_THNB 167N_2025_THNP 167N_2030_THNB 167N_2030_THNP 167N_2050_THNB 167N_2050_THNP 167S_2021_THNB 167S_2021_THNP 167S_2025_THNB 167S_2025_THNP 167S_2030_THNB 167S_2030_THNP 167S_2050_THNB 167S_2050_THNP 505_2021_ASV 505_2021_IFM 505_2021_THNB 505_2021_THNP 505_2025_ASV 505_2025_IFM 505_2025_THNB 505_2025_THNP 505_2030_ASV 505_2030_IFM 505_2030_THNB 505_2030_THNP 505_2050_ASV 505_2050_IFM 505_2050_THNB 505_2050_THNP 608_2021_AWR 608_2025_AWR 608_2030_AWR 608_2050_AWR 999_2021_AWR 999_2021_CAR 999_2021_NAR 999_2021_SAR 999_2025_AWR 999_2025_CAR 999_2025_NAR 999_2025_SAR 999_2030_AWR 999_2030_CAR 999_2030_NAR 999_2030_SAR 999_2050_AWR 999_2050_CAR 999_2050_NAR 999_2050_SAR dummy0 dummy1 :=
	167NAcreage_2021 1.0 0.0 0.0 0.0 0.0 0.0 0.0 0.0 0.0 0.0 0.0 0.0 0.0 0.0 0.0 0.0 0.0 0.0 0.0 0.0 0.0 0.0 0.0 0.0 0.0 0.0 0.0 0.0 0.0 0.0 0.0 0.0 0.0 0.0 0.0 0.0 0.0 0.0 0.0 0.0 0.0 0.0 0.0 0.0 0.0 0.0 0.0 0.0 0.0 0.0 0.0 0.0 0 0 
	167NAcreage_2025 0.0 0.0 1.0 0.0 0.0 0.0 0.0 0.0 0.0 0.0 0.0 0.0 0.0 0.0 0.0 0.0 0.0 0.0 0.0 0.0 0.0 0.0 0.0 0.0 0.0 0.0 0.0 0.0 0.0 0.0 0.0 0.0 0.0 0.0 0.0 0.0 0.0 0.0 0.0 0.0 0.0 0.0 0.0 0.0 0.0 0.0 0.0 0.0 0.0 0.0 0.0 0.0 0 0 
	167NAcreage_2030 0.0 0.0 0.0 0.0 1.0 0.0 0.0 0.0 0.0 0.0 0.0 0.0 0.0 0.0 0.0 0.0 0.0 0.0 0.0 0.0 0.0 0.0 0.0 0.0 0.0 0.0 0.0 0.0 0.0 0.0 0.0 0.0 0.0 0.0 0.0 0.0 0.0 0.0 0.0 0.0 0.0 0.0 0.0 0.0 0.0 0.0 0.0 0.0 0.0 0.0 0.0 0.0 0 0 
	167NAcreage_2050 0.0 0.0 0.0 0.0 0.0 0.0 1.0 0.0 0.0 0.0 0.0 0.0 0.0 0.0 0.0 0.0 0.0 0.0 0.0 0.0 0.0 0.0 0.0 0.0 0.0 0.0 0.0 0.0 0.0 0.0 0.0 0.0 0.0 0.0 0.0 0.0 0.0 0.0 0.0 0.0 0.0 0.0 0.0 0.0 0.0 0.0 0.0 0.0 0.0 0.0 0.0 0.0 0 0 
	167SAcreage_2021 0.0 0.0 0.0 0.0 0.0 0.0 0.0 0.0 1.0 0.0 0.0 0.0 0.0 0.0 0.0 0.0 0.0 0.0 0.0 0.0 0.0 0.0 0.0 0.0 0.0 0.0 0.0 0.0 0.0 0.0 0.0 0.0 0.0 0.0 0.0 0.0 0.0 0.0 0.0 0.0 0.0 0.0 0.0 0.0 0.0 0.0 0.0 0.0 0.0 0.0 0.0 0.0 0 0 
	167SAcreage_2025 0.0 0.0 0.0 0.0 0.0 0.0 0.0 0.0 0.0 0.0 1.0 0.0 0.0 0.0 0.0 0.0 0.0 0.0 0.0 0.0 0.0 0.0 0.0 0.0 0.0 0.0 0.0 0.0 0.0 0.0 0.0 0.0 0.0 0.0 0.0 0.0 0.0 0.0 0.0 0.0 0.0 0.0 0.0 0.0 0.0 0.0 0.0 0.0 0.0 0.0 0.0 0.0 0 0 
	167SAcreage_2030 0.0 0.0 0.0 0.0 0.0 0.0 0.0 0.0 0.0 0.0 0.0 0.0 1.0 0.0 0.0 0.0 0.0 0.0 0.0 0.0 0.0 0.0 0.0 0.0 0.0 0.0 0.0 0.0 0.0 0.0 0.0 0.0 0.0 0.0 0.0 0.0 0.0 0.0 0.0 0.0 0.0 0.0 0.0 0.0 0.0 0.0 0.0 0.0 0.0 0.0 0.0 0.0 0 0 
	167SAcreage_2050 0.0 0.0 0.0 0.0 0.0 0.0 0.0 0.0 0.0 0.0 0.0 0.0 0.0 0.0 1.0 0.0 0.0 0.0 0.0 0.0 0.0 0.0 0.0 0.0 0.0 0.0 0.0 0.0 0.0 0.0 0.0 0.0 0.0 0.0 0.0 0.0 0.0 0.0 0.0 0.0 0.0 0.0 0.0 0.0 0.0 0.0 0.0 0.0 0.0 0.0 0.0 0.0 0 0 
	505Acreage_2021 0.0 0.0 0.0 0.0 0.0 0.0 0.0 0.0 0.0 0.0 0.0 0.0 0.0 0.0 0.0 0.0 1.0 1.0 1.0 0.0 0.0 0.0 0.0 0.0 0.0 0.0 0.0 0.0 0.0 0.0 0.0 0.0 0.0 0.0 0.0 0.0 0.0 0.0 0.0 0.0 0.0 0.0 0.0 0.0 0.0 0.0 0.0 0.0 0.0 0.0 0.0 0.0 0 0 
	505Acreage_2025 0.0 0.0 0.0 0.0 0.0 0.0 0.0 0.0 0.0 0.0 0.0 0.0 0.0 0.0 0.0 0.0 0.0 0.0 0.0 0.0 1.0 1.0 1.0 0.0 0.0 0.0 0.0 0.0 0.0 0.0 0.0 0.0 0.0 0.0 0.0 0.0 0.0 0.0 0.0 0.0 0.0 0.0 0.0 0.0 0.0 0.0 0.0 0.0 0.0 0.0 0.0 0.0 0 0 
	505Acreage_2030 0.0 0.0 0.0 0.0 0.0 0.0 0.0 0.0 0.0 0.0 0.0 0.0 0.0 0.0 0.0 0.0 0.0 0.0 0.0 0.0 0.0 0.0 0.0 0.0 1.0 1.0 1.0 0.0 0.0 0.0 0.0 0.0 0.0 0.0 0.0 0.0 0.0 0.0 0.0 0.0 0.0 0.0 0.0 0.0 0.0 0.0 0.0 0.0 0.0 0.0 0.0 0.0 0 0 
	505Acreage_2050 0.0 0.0 0.0 0.0 0.0 0.0 0.0 0.0 0.0 0.0 0.0 0.0 0.0 0.0 0.0 0.0 0.0 0.0 0.0 0.0 0.0 0.0 0.0 0.0 0.0 0.0 0.0 0.0 1.0 1.0 1.0 0.0 0.0 0.0 0.0 0.0 0.0 0.0 0.0 0.0 0.0 0.0 0.0 0.0 0.0 0.0 0.0 0.0 0.0 0.0 0.0 0.0 0 0 
	999Acreage_2021 0.0 0.0 0.0 0.0 0.0 0.0 0.0 0.0 0.0 0.0 0.0 0.0 0.0 0.0 0.0 0.0 0.0 0.0 0.0 0.0 0.0 0.0 0.0 0.0 0.0 0.0 0.0 0.0 0.0 0.0 0.0 0.0 0.0 0.0 0.0 0.0 1.0 1.0 1.0 1.0 0.0 0.0 0.0 0.0 0.0 0.0 0.0 0.0 0.0 0.0 0.0 0.0 0 0 
	999Acreage_2025 0.0 0.0 0.0 0.0 0.0 0.0 0.0 0.0 0.0 0.0 0.0 0.0 0.0 0.0 0.0 0.0 0.0 0.0 0.0 0.0 0.0 0.0 0.0 0.0 0.0 0.0 0.0 0.0 0.0 0.0 0.0 0.0 0.0 0.0 0.0 0.0 0.0 0.0 0.0 0.0 1.0 1.0 1.0 1.0 0.0 0.0 0.0 0.0 0.0 0.0 0.0 0.0 0 0 
	999Acreage_2030 0.0 0.0 0.0 0.0 0.0 0.0 0.0 0.0 0.0 0.0 0.0 0.0 0.0 0.0 0.0 0.0 0.0 0.0 0.0 0.0 0.0 0.0 0.0 0.0 0.0 0.0 0.0 0.0 0.0 0.0 0.0 0.0 0.0 0.0 0.0 0.0 0.0 0.0 0.0 0.0 0.0 0.0 0.0 0.0 1.0 1.0 1.0 1.0 0.0 0.0 0.0 0.0 0 0 
	999Acreage_2050 0.0 0.0 0.0 0.0 0.0 0.0 0.0 0.0 0.0 0.0 0.0 0.0 0.0 0.0 0.0 0.0 0.0 0.0 0.0 0.0 0.0 0.0 0.0 0.0 0.0 0.0 0.0 0.0 0.0 0.0 0.0 0.0 0.0 0.0 0.0 0.0 0.0 0.0 0.0 0.0 0.0 0.0 0.0 0.0 0.0 0.0 0.0 0.0 1.0 1.0 1.0 1.0 0 0 
	ThinCont2025_167N 1.0 0.0 -1.0 0.0 0.0 0.0 0.0 0.0 0.0 0.0 0.0 0.0 0.0 0.0 0.0 0.0 0.0 0.0 0.0 0.0 0.0 0.0 0.0 0.0 0.0 0.0 0.0 0.0 0.0 0.0 0.0 0.0 0.0 0.0 0.0 0.0 0.0 0.0 0.0 0.0 0.0 0.0 0.0 0.0 0.0 0.0 0.0 0.0 0.0 0.0 0.0 0.0 0 0 
	ThinCont2025_167S 0.0 0.0 0.0 0.0 0.0 0.0 0.0 0.0 1.0 0.0 -1.0 0.0 0.0 0.0 0.0 0.0 0.0 0.0 0.0 0.0 0.0 0.0 0.0 0.0 0.0 0.0 0.0 0.0 0.0 0.0 0.0 0.0 0.0 0.0 0.0 0.0 0.0 0.0 0.0 0.0 0.0 0.0 0.0 0.0 0.0 0.0 0.0 0.0 0.0 0.0 0.0 0.0 0 0 
	ThinCont2025_505 0.0 0.0 0.0 0.0 0.0 0.0 0.0 0.0 0.0 0.0 0.0 0.0 0.0 0.0 0.0 0.0 0.0 0.0 1.0 0.0 0.0 0.0 -1.0 0.0 0.0 0.0 0.0 0.0 0.0 0.0 0.0 0.0 0.0 0.0 0.0 0.0 0.0 0.0 0.0 0.0 0.0 0.0 0.0 0.0 0.0 0.0 0.0 0.0 0.0 0.0 0.0 0.0 0 0 
	ThinCont2030_167N 1.0 0.0 0.0 0.0 -1.0 0.0 0.0 0.0 0.0 0.0 0.0 0.0 0.0 0.0 0.0 0.0 0.0 0.0 0.0 0.0 0.0 0.0 0.0 0.0 0.0 0.0 0.0 0.0 0.0 0.0 0.0 0.0 0.0 0.0 0.0 0.0 0.0 0.0 0.0 0.0 0.0 0.0 0.0 0.0 0.0 0.0 0.0 0.0 0.0 0.0 0.0 0.0 0 0 
	ThinCont2030_167S 0.0 0.0 0.0 0.0 0.0 0.0 0.0 0.0 1.0 0.0 0.0 0.0 -1.0 0.0 0.0 0.0 0.0 0.0 0.0 0.0 0.0 0.0 0.0 0.0 0.0 0.0 0.0 0.0 0.0 0.0 0.0 0.0 0.0 0.0 0.0 0.0 0.0 0.0 0.0 0.0 0.0 0.0 0.0 0.0 0.0 0.0 0.0 0.0 0.0 0.0 0.0 0.0 0 0 
	ThinCont2030_505 0.0 0.0 0.0 0.0 0.0 0.0 0.0 0.0 0.0 0.0 0.0 0.0 0.0 0.0 0.0 0.0 0.0 0.0 1.0 0.0 0.0 0.0 0.0 0.0 0.0 0.0 -1.0 0.0 0.0 0.0 0.0 0.0 0.0 0.0 0.0 0.0 0.0 0.0 0.0 0.0 0.0 0.0 0.0 0.0 0.0 0.0 0.0 0.0 0.0 0.0 0.0 0.0 0 0 
	ThinCont2050_167N 1.0 0.0 0.0 0.0 0.0 0.0 -1.0 0.0 0.0 0.0 0.0 0.0 0.0 0.0 0.0 0.0 0.0 0.0 0.0 0.0 0.0 0.0 0.0 0.0 0.0 0.0 0.0 0.0 0.0 0.0 0.0 0.0 0.0 0.0 0.0 0.0 0.0 0.0 0.0 0.0 0.0 0.0 0.0 0.0 0.0 0.0 0.0 0.0 0.0 0.0 0.0 0.0 0 0 
	ThinCont2050_167S 0.0 0.0 0.0 0.0 0.0 0.0 0.0 0.0 1.0 0.0 0.0 0.0 0.0 0.0 -1.0 0.0 0.0 0.0 0.0 0.0 0.0 0.0 0.0 0.0 0.0 0.0 0.0 0.0 0.0 0.0 0.0 0.0 0.0 0.0 0.0 0.0 0.0 0.0 0.0 0.0 0.0 0.0 0.0 0.0 0.0 0.0 0.0 0.0 0.0 0.0 0.0 0.0 0 0 
	ThinCont2050_505 0.0 0.0 0.0 0.0 0.0 0.0 0.0 0.0 0.0 0.0 0.0 0.0 0.0 0.0 0.0 0.0 0.0 0.0 1.0 0.0 0.0 0.0 0.0 0.0 0.0 0.0 0.0 0.0 0.0 0.0 -1.0 0.0 0.0 0.0 0.0 0.0 0.0 0.0 0.0 0.0 0.0 0.0 0.0 0.0 0.0 0.0 0.0 0.0 0.0 0.0 0.0 0.0 0 0 
	ZeroingTHNP_167N_2021_THNP 0.0 1.0 0.0 0.0 0.0 0.0 0.0 0.0 0.0 0.0 0.0 0.0 0.0 0.0 0.0 0.0 0.0 0.0 0.0 0.0 0.0 0.0 0.0 0.0 0.0 0.0 0.0 0.0 0.0 0.0 0.0 0.0 0.0 0.0 0.0 0.0 0.0 0.0 0.0 0.0 0.0 0.0 0.0 0.0 0.0 0.0 0.0 0.0 0.0 0.0 0.0 0.0 0 0 
	ZeroingTHNP_167N_2025_THNP 0.0 0.0 0.0 1.0 0.0 0.0 0.0 0.0 0.0 0.0 0.0 0.0 0.0 0.0 0.0 0.0 0.0 0.0 0.0 0.0 0.0 0.0 0.0 0.0 0.0 0.0 0.0 0.0 0.0 0.0 0.0 0.0 0.0 0.0 0.0 0.0 0.0 0.0 0.0 0.0 0.0 0.0 0.0 0.0 0.0 0.0 0.0 0.0 0.0 0.0 0.0 0.0 0 0 
	ZeroingTHNP_167N_2030_THNP 0.0 0.0 0.0 0.0 0.0 1.0 0.0 0.0 0.0 0.0 0.0 0.0 0.0 0.0 0.0 0.0 0.0 0.0 0.0 0.0 0.0 0.0 0.0 0.0 0.0 0.0 0.0 0.0 0.0 0.0 0.0 0.0 0.0 0.0 0.0 0.0 0.0 0.0 0.0 0.0 0.0 0.0 0.0 0.0 0.0 0.0 0.0 0.0 0.0 0.0 0.0 0.0 0 0 
	ZeroingTHNP_167N_2050_THNP 0.0 0.0 0.0 0.0 0.0 0.0 0.0 1.0 0.0 0.0 0.0 0.0 0.0 0.0 0.0 0.0 0.0 0.0 0.0 0.0 0.0 0.0 0.0 0.0 0.0 0.0 0.0 0.0 0.0 0.0 0.0 0.0 0.0 0.0 0.0 0.0 0.0 0.0 0.0 0.0 0.0 0.0 0.0 0.0 0.0 0.0 0.0 0.0 0.0 0.0 0.0 0.0 0 0 
	ZeroingTHNP_167S_2021_THNP 0.0 0.0 0.0 0.0 0.0 0.0 0.0 0.0 0.0 1.0 0.0 0.0 0.0 0.0 0.0 0.0 0.0 0.0 0.0 0.0 0.0 0.0 0.0 0.0 0.0 0.0 0.0 0.0 0.0 0.0 0.0 0.0 0.0 0.0 0.0 0.0 0.0 0.0 0.0 0.0 0.0 0.0 0.0 0.0 0.0 0.0 0.0 0.0 0.0 0.0 0.0 0.0 0 0 
	ZeroingTHNP_167S_2025_THNP 0.0 0.0 0.0 0.0 0.0 0.0 0.0 0.0 0.0 0.0 0.0 1.0 0.0 0.0 0.0 0.0 0.0 0.0 0.0 0.0 0.0 0.0 0.0 0.0 0.0 0.0 0.0 0.0 0.0 0.0 0.0 0.0 0.0 0.0 0.0 0.0 0.0 0.0 0.0 0.0 0.0 0.0 0.0 0.0 0.0 0.0 0.0 0.0 0.0 0.0 0.0 0.0 0 0 
	ZeroingTHNP_167S_2030_THNP 0.0 0.0 0.0 0.0 0.0 0.0 0.0 0.0 0.0 0.0 0.0 0.0 0.0 1.0 0.0 0.0 0.0 0.0 0.0 0.0 0.0 0.0 0.0 0.0 0.0 0.0 0.0 0.0 0.0 0.0 0.0 0.0 0.0 0.0 0.0 0.0 0.0 0.0 0.0 0.0 0.0 0.0 0.0 0.0 0.0 0.0 0.0 0.0 0.0 0.0 0.0 0.0 0 0 
	ZeroingTHNP_167S_2050_THNP 0.0 0.0 0.0 0.0 0.0 0.0 0.0 0.0 0.0 0.0 0.0 0.0 0.0 0.0 0.0 1.0 0.0 0.0 0.0 0.0 0.0 0.0 0.0 0.0 0.0 0.0 0.0 0.0 0.0 0.0 0.0 0.0 0.0 0.0 0.0 0.0 0.0 0.0 0.0 0.0 0.0 0.0 0.0 0.0 0.0 0.0 0.0 0.0 0.0 0.0 0.0 0.0 0 0 
	ZeroingTHNP_505_2021_THNP 0.0 0.0 0.0 0.0 0.0 0.0 0.0 0.0 0.0 0.0 0.0 0.0 0.0 0.0 0.0 0.0 0.0 0.0 0.0 1.0 0.0 0.0 0.0 0.0 0.0 0.0 0.0 0.0 0.0 0.0 0.0 0.0 0.0 0.0 0.0 0.0 0.0 0.0 0.0 0.0 0.0 0.0 0.0 0.0 0.0 0.0 0.0 0.0 0.0 0.0 0.0 0.0 0 0 
	ZeroingTHNP_505_2025_THNP 0.0 0.0 0.0 0.0 0.0 0.0 0.0 0.0 0.0 0.0 0.0 0.0 0.0 0.0 0.0 0.0 0.0 0.0 0.0 0.0 0.0 0.0 0.0 1.0 0.0 0.0 0.0 0.0 0.0 0.0 0.0 0.0 0.0 0.0 0.0 0.0 0.0 0.0 0.0 0.0 0.0 0.0 0.0 0.0 0.0 0.0 0.0 0.0 0.0 0.0 0.0 0.0 0 0 
	ZeroingTHNP_505_2030_THNP 0.0 0.0 0.0 0.0 0.0 0.0 0.0 0.0 0.0 0.0 0.0 0.0 0.0 0.0 0.0 0.0 0.0 0.0 0.0 0.0 0.0 0.0 0.0 0.0 0.0 0.0 0.0 1.0 0.0 0.0 0.0 0.0 0.0 0.0 0.0 0.0 0.0 0.0 0.0 0.0 0.0 0.0 0.0 0.0 0.0 0.0 0.0 0.0 0.0 0.0 0.0 0.0 0 0 
	ZeroingTHNP_505_2050_THNP 0.0 0.0 0.0 0.0 0.0 0.0 0.0 0.0 0.0 0.0 0.0 0.0 0.0 0.0 0.0 0.0 0.0 0.0 0.0 0.0 0.0 0.0 0.0 0.0 0.0 0.0 0.0 0.0 0.0 0.0 0.0 1.0 0.0 0.0 0.0 0.0 0.0 0.0 0.0 0.0 0.0 0.0 0.0 0.0 0.0 0.0 0.0 0.0 0.0 0.0 0.0 0.0 0 0 
	ARCont2025_CAR 0.0 0.0 0.0 0.0 0.0 0.0 0.0 0.0 0.0 0.0 0.0 0.0 0.0 0.0 0.0 0.0 0.0 0.0 0.0 0.0 0.0 0.0 0.0 0.0 0.0 0.0 0.0 0.0 0.0 0.0 0.0 0.0 0.0 0.0 0.0 0.0 0.0 1.0 0.0 0.0 0.0 -1.0 0.0 0.0 0.0 0.0 0.0 0.0 0.0 0.0 0.0 0.0 0 0 
	ARCont2025_NAR 0.0 0.0 0.0 0.0 0.0 0.0 0.0 0.0 0.0 0.0 0.0 0.0 0.0 0.0 0.0 0.0 0.0 0.0 0.0 0.0 0.0 0.0 0.0 0.0 0.0 0.0 0.0 0.0 0.0 0.0 0.0 0.0 0.0 0.0 0.0 0.0 0.0 0.0 1.0 0.0 0.0 0.0 -1.0 0.0 0.0 0.0 0.0 0.0 0.0 0.0 0.0 0.0 0 0 
	ARCont2025_SAR 0.0 0.0 0.0 0.0 0.0 0.0 0.0 0.0 0.0 0.0 0.0 0.0 0.0 0.0 0.0 0.0 0.0 0.0 0.0 0.0 0.0 0.0 0.0 0.0 0.0 0.0 0.0 0.0 0.0 0.0 0.0 0.0 0.0 0.0 0.0 0.0 0.0 0.0 0.0 1.0 0.0 0.0 0.0 -1.0 0.0 0.0 0.0 0.0 0.0 0.0 0.0 0.0 0 0 
	ARcont2030_CAR 0.0 0.0 0.0 0.0 0.0 0.0 0.0 0.0 0.0 0.0 0.0 0.0 0.0 0.0 0.0 0.0 0.0 0.0 0.0 0.0 0.0 0.0 0.0 0.0 0.0 0.0 0.0 0.0 0.0 0.0 0.0 0.0 0.0 0.0 0.0 0.0 0.0 1.0 0.0 0.0 0.0 0.0 0.0 0.0 0.0 -1.0 0.0 0.0 0.0 0.0 0.0 0.0 0 0 
	ARcont2030_NAR 0.0 0.0 0.0 0.0 0.0 0.0 0.0 0.0 0.0 0.0 0.0 0.0 0.0 0.0 0.0 0.0 0.0 0.0 0.0 0.0 0.0 0.0 0.0 0.0 0.0 0.0 0.0 0.0 0.0 0.0 0.0 0.0 0.0 0.0 0.0 0.0 0.0 0.0 1.0 0.0 0.0 0.0 0.0 0.0 0.0 0.0 -1.0 0.0 0.0 0.0 0.0 0.0 0 0 
	ARcont2030_SAR 0.0 0.0 0.0 0.0 0.0 0.0 0.0 0.0 0.0 0.0 0.0 0.0 0.0 0.0 0.0 0.0 0.0 0.0 0.0 0.0 0.0 0.0 0.0 0.0 0.0 0.0 0.0 0.0 0.0 0.0 0.0 0.0 0.0 0.0 0.0 0.0 0.0 0.0 0.0 1.0 0.0 0.0 0.0 0.0 0.0 0.0 0.0 -1.0 0.0 0.0 0.0 0.0 0 0 
	ARcont2050_CAR 0.0 0.0 0.0 0.0 0.0 0.0 0.0 0.0 0.0 0.0 0.0 0.0 0.0 0.0 0.0 0.0 0.0 0.0 0.0 0.0 0.0 0.0 0.0 0.0 0.0 0.0 0.0 0.0 0.0 0.0 0.0 0.0 0.0 0.0 0.0 0.0 0.0 1.0 0.0 0.0 0.0 0.0 0.0 0.0 0.0 0.0 0.0 0.0 0.0 -1.0 0.0 0.0 0 0 
	ARcont2050_NAR 0.0 0.0 0.0 0.0 0.0 0.0 0.0 0.0 0.0 0.0 0.0 0.0 0.0 0.0 0.0 0.0 0.0 0.0 0.0 0.0 0.0 0.0 0.0 0.0 0.0 0.0 0.0 0.0 0.0 0.0 0.0 0.0 0.0 0.0 0.0 0.0 0.0 0.0 1.0 0.0 0.0 0.0 0.0 0.0 0.0 0.0 0.0 0.0 0.0 0.0 -1.0 0.0 0 0 
	ARcont2050_SAR 0.0 0.0 0.0 0.0 0.0 0.0 0.0 0.0 0.0 0.0 0.0 0.0 0.0 0.0 0.0 0.0 0.0 0.0 0.0 0.0 0.0 0.0 0.0 0.0 0.0 0.0 0.0 0.0 0.0 0.0 0.0 0.0 0.0 0.0 0.0 0.0 0.0 0.0 0.0 1.0 0.0 0.0 0.0 0.0 0.0 0.0 0.0 0.0 0.0 0.0 0.0 -1.0 0 0 
;
